Problem:    
Rows:       113
Columns:    45 (34 integer, 34 binary)
Non-zeros:  356
Status:     INTEGER OPTIMAL
Objective:  value = 4.604187 (MINimum)

   No.   Row name        Activity     Lower bound   Upper bound
------ ------------    ------------- ------------- -------------
     1 r.5                    1004.6             0               
     2 r.6                  -995.396        -999.3               
     3 r.7                   4.60419             0               
     4 r.8                   4.60419      -999.319               
     5 r.9                   4.60419             0               
     6 r.10                  4.60419      -996.932               
     7 r.11                   1004.6             0               
     8 r.12                 -995.396      -996.981               
     9 r.13                   1004.6             0               
    10 r.14                 -996.096      -998.494               
    11 r.15                  4.60419             0               
    12 r.16                  4.60419      -996.721               
    13 r.17                   1004.6             0               
    14 r.18                 -997.602      -998.575               
    15 r.19                  4.60419             0               
    16 r.20                  4.60419      -998.729               
    17 r.21                   1004.6             0               
    18 r.22                 -999.907      -999.907               
    19 r.23                  4.60419             0               
    20 r.24                  1.48086      -999.555               
    21 r.25                        1             1             = 
    22 r.26                        1             1             = 
    23 r.27                        1             1             = 
    24 r.28                        1             1             = 
    25 r.29                        1             1             = 
    26 r.30                     1001             2               
    27 r.31                    -1001         -1001               
    28 r.32                     2000      -996.932               
    29 r.33                     1001             2               
    30 r.34                    -1001         -1001               
    31 r.35                     2000      -996.981               
    32 r.36                        2             2               
    33 r.37                       -2         -1001               
    34 r.38                  -0.7002      -998.494               
    35 r.39                     1000             2               
    36 r.40                    -1000         -1001               
    37 r.41                     2000      -996.721               
    38 r.42                        2             2               
    39 r.43                       -2         -1001               
    40 r.44                  -2.2058      -998.575               
    41 r.45                     1000             2               
    42 r.46                    -1000         -1001               
    43 r.47                     2000      -998.729               
    44 r.48                  -996.37        -999.3               
    45 r.49                   3.6304      -999.319               
    46 r.50                  -996.37        -999.3               
    47 r.51                   3.6304      -999.319               
    48 r.52                     1001             2               
    49 r.53                    -1001         -1001               
    50 r.54                     2000        0.7002               
    51 r.55                     1001             2               
    52 r.56                    -1001         -1001               
    53 r.57                     2000      0.681444               
    54 r.58                     1001             2               
    55 r.59                    -1001         -1001               
    56 r.60                   1999.3      -998.494               
    57 r.61                     1001             2               
    58 r.62                    -1001         -1001               
    59 r.63                     2000      -996.721               
    60 r.64                     1001             2               
    61 r.65                    -1001         -1001               
    62 r.66                  1997.79      -998.575               
    63 r.67                     1001             2               
    64 r.68                    -1001         -1001               
    65 r.69                     2000      -998.729               
    66 r.70                   3.6304      -996.932               
    67 r.71                  -996.37      -996.981               
    68 r.72                   3.6304      -996.932               
    69 r.73                  -996.37      -996.981               
    70 r.74                        2             2               
    71 r.75                       -2         -1001               
    72 r.76                   0.7002        0.7002               
    73 r.77                     1000             2               
    74 r.78                    -1000         -1001               
    75 r.79                     2000      0.681444               
    76 r.80                     1001             2               
    77 r.81                    -1001         -1001               
    78 r.82                   2000.7         3.068               
    79 r.83                     1001             2               
    80 r.84                    -1001         -1001               
    81 r.85                     2000       3.01875               
    82 r.86                        2             2               
    83 r.87                       -2         -1001               
    84 r.88                  -1.5056      -998.575               
    85 r.89                     1000             2               
    86 r.90                    -1000         -1001               
    87 r.91                     2000      -998.729               
    88 r.92                  -997.07      -998.494               
    89 r.93                   3.6304      -996.721               
    90 r.94                  -997.07      -998.494               
    91 r.95                   3.6304      -996.721               
    92 r.96                        2             2               
    93 r.97                       -2         -1001               
    94 r.98                   2.2058        0.7002               
    95 r.99                     1000             2               
    96 r.100                   -1000         -1001               
    97 r.101                    2000      0.681444               
    98 r.102                    1001             2               
    99 r.103                   -1001         -1001               
   100 r.104                 2002.21         3.068               
   101 r.105                    1001             2               
   102 r.106                   -1001         -1001               
   103 r.107                    2000       3.01875               
   104 r.108                       2             2               
   105 r.109                      -2         -1001               
   106 r.110                  1.5056        1.5056               
   107 r.111                    1000             2               
   108 r.112                   -1000         -1001               
   109 r.113                    2000       3.27915               
   110 r.114                -998.575      -998.575               
   111 r.115                  3.6304      -998.729               
   112 r.116                -998.575      -998.575               
   113 r.117                  3.6304      -998.729               

   No. Column name       Activity     Lower bound   Upper bound
------ ------------    ------------- ------------- -------------
     1 tt                    4.60419             0               
     2 s_1_1        *              1             0             1 
     3 t_1_1                       0             0               
     4 s_2_1        *              0             0             1 
     5 t_2_1                       0             0               
     6 s_1_2        *              0             0             1 
     7 t_1_2                       0             0               
     8 s_2_2        *              1             0             1 
     9 t_2_2                       0             0               
    10 s_1_3        *              1             0             1 
    11 t_1_3                  0.7002             0               
    12 s_2_3        *              0             0             1 
    13 t_2_3                       0             0               
    14 s_1_4        *              1             0             1 
    15 t_1_4                  2.2058             0               
    16 s_2_4        *              0             0             1 
    17 t_2_4                       0             0               
    18 s_1_5        *              1             0             1 
    19 t_1_5                  3.6304             0               
    20 s_2_5        *              0             0             1 
    21 t_2_5                  3.6304             0               
    22 r_1_1_2      *              1             0             1 
    23 u_1_1_2      *              0             0             1 
    24 r_2_1_2      *              1             0             1 
    25 u_2_1_2      *              0             0             1 
    26 r_1_1_3      *              0             0             1 
    27 u_1_1_3      *              0             0             1 
    28 r_2_1_3      *              1             0             1 
    29 u_2_1_3      *              0             0             1 
    30 r_1_1_4      *              0             0             1 
    31 u_1_1_4      *              0             0             1 
    32 r_2_1_4      *              1             0             1 
    33 u_2_1_4      *              0             0             1 
    34 r_1_2_3      *              1             0             1 
    35 u_1_2_3      *              0             0             1 
    36 r_2_2_3      *              1             0             1 
    37 u_2_2_3      *              0             0             1 
    38 r_1_2_4      *              1             0             1 
    39 u_1_2_4      *              0             0             1 
    40 r_2_2_4      *              1             0             1 
    41 u_2_2_4      *              0             0             1 
    42 r_1_3_4      *              0             0             1 
    43 u_1_3_4      *              0             0             1 
    44 r_2_3_4      *              1             0             1 
    45 u_2_3_4      *              0             0             1 

Integer feasibility conditions:

KKT.PE: max.abs.err = 1.14e-13 on row 18
        max.rel.err = 5.65e-17 on row 18
        High quality

KKT.PB: max.abs.err = 2.22e-16 on row 106
        max.rel.err = 8.86e-17 on row 106
        High quality

End of output
